c defined variables: 
p cnf 86 57
a 1 2 3 4 5 6 7 8 9 10 11 12 13 14 0
d 15 2 5 7 0
d 16 3 14 0
d 17 2 10 11 0
d 18 4 8 10 0
d 19 2 4 12 0
d 20 4 8 0
d 21 3 6 7 13 0
d 22 4 7 0
d 23 1 7 13 14 0
d 24 4 6 8 13 0
d 25 3 5 9 10 0
d 26 10 13 0
d 27 4 6 9 11 0
d 28 7 11 0
3 11 16 17 -18 0
2 -4 17 -18 -20 0
-3 8 -16 17 20 0
-2 13 16 -17 -21 0
-3 4 -16 -19 -23 0
2 -7 15 20 -23 0
-1 -14 15 -18 23 0
1 12 16 19 23 0
-4 -14 17 20 23 0
-2 -4 17 -22 23 0
4 13 17 -22 23 0
10 -13 17 22 23 0
8 -13 17 -18 24 0
6 8 -16 20 24 0
-8 13 -16 -21 24 0
-4 8 22 23 24 0
4 8 -18 -19 -25 0
6 13 18 -21 -25 0
-3 -5 -19 21 -25 0
-3 -9 17 22 -25 0
9 13 18 21 25 0
-3 5 16 22 25 0
-2 4 19 22 25 0
7 -8 -22 24 25 0
-7 14 15 -16 -26 0
-2 10 -18 19 -26 0
3 4 -18 21 -26 0
3 -13 21 24 -26 0
10 -11 15 17 26 0
-2 11 -17 -22 26 0
-5 8 15 -24 26 0
-8 13 -20 -25 26 0
-3 14 16 25 26 0
2 -11 16 19 -27 0
-4 -8 -18 20 -27 0
4 13 -17 23 -27 0
-1 7 19 23 -27 0
-2 -11 -17 -24 -27 0
-2 4 19 -25 -27 0
-3 -11 -15 -21 27 0
-11 13 16 -21 27 0
-1 -14 -19 23 27 0
-5 -9 15 -24 27 0
-7 -9 -15 -25 27 0
3 9 -20 25 27 0
-5 13 -15 -26 27 0
-4 10 20 26 27 0
-3 -7 19 -21 -28 0
3 10 -23 25 -28 0
5 -10 -15 -26 -28 0
-4 -11 21 27 -28 0
-10 11 25 27 -28 0
7 8 -20 23 28 0
4 8 -23 -24 28 0
-8 -9 -18 25 28 0
-2 10 -17 -26 28 0
-6 -7 20 -27 28 0
